(set-logic QF_LIA)
;2600)
;time-consuming:0.2
(set-info :status sat)
(declare-fun symbol_1 () Int)
(declare-fun symbol_0 () Int)
(declare-fun symbol_3 () Int)
(declare-fun symbol_2 () Int)
(declare-fun symbol_5 () Int)
(declare-fun symbol_4 () Int)
(declare-fun symbol_7 () Int)
(declare-fun symbol_6 () Int)
(declare-fun symbol_9 () Int)
(declare-fun symbol_8 () Int)
(declare-fun symbol_11 () Int)
(declare-fun symbol_10 () Int)
(declare-fun symbol_13 () Int)
(declare-fun symbol_12 () Int)
(declare-fun symbol_14 () Int)
(declare-fun symbol_15 () Int)
(declare-fun symbol_16 () Int)
(declare-fun symbol_17 () Int)
(declare-fun symbol_18 () Int)
(declare-fun symbol_19 () Int)
(declare-fun symbol_20 () Int)
(declare-fun symbol_21 () Int)
(declare-fun symbol_22 () Int)
(declare-fun symbol_23 () Int)
(declare-fun symbol_24 () Int)
(declare-fun symbol_25 () Int)
(declare-fun symbol_26 () Int)
(declare-fun symbol_27 () Int)
(assert
 (let ((?x10388 (+ symbol_0 1)))
 (let ((?x6042 (+ ?x10388 1)))
 (let ((?x7437 (+ ?x6042 1)))
 (let ((?x517 (+ ?x7437 1)))
 (let ((?x5911 (+ ?x517 1)))
 (< (+ ?x5911 1) symbol_1)))))))
(assert
 (not (> (- symbol_2 symbol_3) 0)))
(assert
 (let ((?x10388 (+ symbol_0 1)))
 (let ((?x6042 (+ ?x10388 1)))
 (let ((?x7437 (+ ?x6042 1)))
 (let ((?x517 (+ ?x7437 1)))
 (let ((?x5911 (+ ?x517 1)))
 (>= ?x5911 symbol_0)))))))
(assert
 (let ((?x10388 (+ symbol_0 1)))
 (let ((?x6042 (+ ?x10388 1)))
 (let ((?x7437 (+ ?x6042 1)))
 (let ((?x517 (+ ?x7437 1)))
 (let ((?x5911 (+ ?x517 1)))
 (< ?x5911 symbol_1)))))))
(assert
 (not (> (- symbol_4 symbol_5) 0)))
(assert
 (let ((?x10388 (+ symbol_0 1)))
 (let ((?x6042 (+ ?x10388 1)))
 (let ((?x7437 (+ ?x6042 1)))
 (let ((?x517 (+ ?x7437 1)))
 (>= ?x517 symbol_0))))))
(assert
 (let ((?x10388 (+ symbol_0 1)))
 (let ((?x6042 (+ ?x10388 1)))
 (let ((?x7437 (+ ?x6042 1)))
 (let ((?x517 (+ ?x7437 1)))
 (< ?x517 symbol_1))))))
(assert
 (not (> (- symbol_6 symbol_7) 0)))
(assert
 (let ((?x10388 (+ symbol_0 1)))
 (let ((?x6042 (+ ?x10388 1)))
 (let ((?x7437 (+ ?x6042 1)))
 (>= ?x7437 symbol_0)))))
(assert
 (let ((?x10388 (+ symbol_0 1)))
 (let ((?x6042 (+ ?x10388 1)))
 (let ((?x7437 (+ ?x6042 1)))
 (< ?x7437 symbol_1)))))
(assert
 (not (> (- symbol_8 symbol_9) 0)))
(assert
 (let ((?x10388 (+ symbol_0 1)))
 (let ((?x6042 (+ ?x10388 1)))
 (>= ?x6042 symbol_0))))
(assert
 (let ((?x10388 (+ symbol_0 1)))
 (let ((?x6042 (+ ?x10388 1)))
 (< ?x6042 symbol_1))))
(assert
 (not (> (- symbol_10 symbol_11) 0)))
(assert
 (let ((?x10388 (+ symbol_0 1)))
 (>= ?x10388 symbol_0)))
(assert
 (let ((?x10388 (+ symbol_0 1)))
 (< ?x10388 symbol_1)))
(assert
 (not (> (- symbol_12 symbol_13) 0)))
(assert
 (let ((?x9381 (- symbol_0 symbol_0)))
 (let ((?x7178 (- ?x9381 symbol_0)))
 (let ((?x3787 (- ?x7178 symbol_0)))
 (let ((?x4521 (- ?x3787 symbol_0)))
 (>= (- ?x4521 symbol_0) symbol_0))))))
(assert
 (> (- symbol_14 symbol_13) 0))
(assert
 (let ((?x9381 (- symbol_0 symbol_0)))
 (let ((?x7178 (- ?x9381 symbol_0)))
 (let ((?x3787 (- ?x7178 symbol_0)))
 (let ((?x4521 (- ?x3787 symbol_0)))
 (>= ?x4521 symbol_0))))))
(assert
 (> (- symbol_15 symbol_13) 0))
(assert
 (let ((?x9381 (- symbol_0 symbol_0)))
 (let ((?x7178 (- ?x9381 symbol_0)))
 (let ((?x3787 (- ?x7178 symbol_0)))
 (>= ?x3787 symbol_0)))))
(assert
 (> (- symbol_16 symbol_13) 0))
(assert
 (let ((?x9381 (- symbol_0 symbol_0)))
 (let ((?x7178 (- ?x9381 symbol_0)))
 (>= ?x7178 symbol_0))))
(assert
 (> (- symbol_17 symbol_13) 0))
(assert
 (let ((?x9381 (- symbol_0 symbol_0)))
 (>= ?x9381 symbol_0)))
(assert
 (> (- symbol_18 symbol_13) 0))
(assert
 (>= symbol_0 symbol_0))
(assert
 (< symbol_0 symbol_1))
(assert
 (not (> (* 2 symbol_0) symbol_1)))
(assert
 (let ((?x1957 symbol_1))
 (> (* 2 symbol_19) ?x1957)))
(assert
 (let ((?x1957 symbol_1))
 (> (* 2 symbol_20) ?x1957)))
(assert
 (let ((?x1957 symbol_1))
 (> (* 2 symbol_21) ?x1957)))
(assert
 (let ((?x1957 symbol_1))
 (> (* 2 symbol_22) ?x1957)))
(assert
 (let ((?x1957 symbol_1))
 (> (* 2 symbol_23) ?x1957)))
(assert
 (let ((?x1957 symbol_1))
 (> (* 2 symbol_24) ?x1957)))
(assert
 (let ((?x1957 symbol_1))
 (> (* 2 symbol_25) ?x1957)))
(assert
 (let ((?x1957 symbol_1))
 (> (* 2 symbol_26) ?x1957)))
(assert
 (let ((?x1957 symbol_1))
 (> (* 2 symbol_27) ?x1957)))
(assert
 (not (<= symbol_1 1)))
(check-sat)
